p cnf 400 1811
-1 0
-2 0
1 2 3 0
-1 -2 -3 0
2 3 4 0
-2 -3 -4 0
4 0
3 4 5 0
-3 -4 -5 0
4 5 6 0
-4 -5 -6 0
5 6 7 0
-5 -6 -7 0
6 7 8 0
-6 -7 -8 0
8 0
7 8 9 0
-7 -8 -9 0
8 9 10 0
-8 -9 -10 0
9 10 11 0
-9 -10 -11 0
10 11 12 0
-10 -11 -12 0
11 12 13 0
-11 -12 -13 0
12 13 14 0
-12 -13 -14 0
-14 0
13 14 15 0
-13 -14 -15 0
14 15 16 0
-14 -15 -16 0
15 16 17 0
-15 -16 -17 0
16 17 18 0
-16 -17 -18 0
17 18 19 0
-17 -18 -19 0
18 19 20 0
-18 -19 -20 0
-20 0
1 21 41 0
-1 -21 -41 0
21 22 23 0
-21 -22 -23 0
2 22 42 0
-2 -22 -42 0
22 23 24 0
-22 -23 -24 0
3 23 43 0
-3 -23 -43 0
23 24 25 0
-23 -24 -25 0
4 24 44 0
-4 -24 -44 0
24 25 26 0
-24 -25 -26 0
5 25 45 0
-5 -25 -45 0
25 26 27 0
-25 -26 -27 0
6 26 46 0
-6 -26 -46 0
26 27 28 0
-26 -27 -28 0
7 27 47 0
-7 -27 -47 0
27 28 29 0
-27 -28 -29 0
8 28 48 0
-8 -28 -48 0
-29 0
28 29 30 0
-28 -29 -30 0
9 29 49 0
-9 -29 -49 0
-30 0
29 30 31 0
-29 -30 -31 0
10 30 50 0
-10 -30 -50 0
30 31 32 0
-30 -31 -32 0
11 31 51 0
-11 -31 -51 0
31 32 33 0
-31 -32 -33 0
12 32 52 0
-12 -32 -52 0
32 33 34 0
-32 -33 -34 0
13 33 53 0
-13 -33 -53 0
33 34 35 0
-33 -34 -35 0
14 34 54 0
-14 -34 -54 0
34 35 36 0
-34 -35 -36 0
15 35 55 0
-15 -35 -55 0
35 36 37 0
-35 -36 -37 0
16 36 56 0
-16 -36 -56 0
36 37 38 0
-36 -37 -38 0
17 37 57 0
-17 -37 -57 0
37 38 39 0
-37 -38 -39 0
18 38 58 0
-18 -38 -58 0
38 39 40 0
-38 -39 -40 0
19 39 59 0
-19 -39 -59 0
20 40 60 0
-20 -40 -60 0
21 41 61 0
-21 -41 -61 0
41 42 43 0
-41 -42 -43 0
22 42 62 0
-22 -42 -62 0
42 43 44 0
-42 -43 -44 0
23 43 63 0
-23 -43 -63 0
43 44 45 0
-43 -44 -45 0
24 44 64 0
-24 -44 -64 0
44 45 46 0
-44 -45 -46 0
25 45 65 0
-25 -45 -65 0
-46 0
45 46 47 0
-45 -46 -47 0
26 46 66 0
-26 -46 -66 0
46 47 48 0
-46 -47 -48 0
27 47 67 0
-27 -47 -67 0
47 48 49 0
-47 -48 -49 0
28 48 68 0
-28 -48 -68 0
48 49 50 0
-48 -49 -50 0
29 49 69 0
-29 -49 -69 0
49 50 51 0
-49 -50 -51 0
30 50 70 0
-30 -50 -70 0
50 51 52 0
-50 -51 -52 0
31 51 71 0
-31 -51 -71 0
-52 0
51 52 53 0
-51 -52 -53 0
32 52 72 0
-32 -52 -72 0
52 53 54 0
-52 -53 -54 0
33 53 73 0
-33 -53 -73 0
53 54 55 0
-53 -54 -55 0
34 54 74 0
-34 -54 -74 0
55 0
54 55 56 0
-54 -55 -56 0
35 55 75 0
-35 -55 -75 0
55 56 57 0
-55 -56 -57 0
36 56 76 0
-36 -56 -76 0
56 57 58 0
-56 -57 -58 0
37 57 77 0
-37 -57 -77 0
57 58 59 0
-57 -58 -59 0
38 58 78 0
-38 -58 -78 0
59 0
58 59 60 0
-58 -59 -60 0
39 59 79 0
-39 -59 -79 0
-60 0
40 60 80 0
-40 -60 -80 0
41 61 81 0
-41 -61 -81 0
61 62 63 0
-61 -62 -63 0
42 62 82 0
-42 -62 -82 0
63 0
62 63 64 0
-62 -63 -64 0
43 63 83 0
-43 -63 -83 0
63 64 65 0
-63 -64 -65 0
44 64 84 0
-44 -64 -84 0
65 0
64 65 66 0
-64 -65 -66 0
45 65 85 0
-45 -65 -85 0
65 66 67 0
-65 -66 -67 0
46 66 86 0
-46 -66 -86 0
67 0
66 67 68 0
-66 -67 -68 0
47 67 87 0
-47 -67 -87 0
67 68 69 0
-67 -68 -69 0
48 68 88 0
-48 -68 -88 0
68 69 70 0
-68 -69 -70 0
49 69 89 0
-49 -69 -89 0
69 70 71 0
-69 -70 -71 0
50 70 90 0
-50 -70 -90 0
70 71 72 0
-70 -71 -72 0
51 71 91 0
-51 -71 -91 0
71 72 73 0
-71 -72 -73 0
52 72 92 0
-52 -72 -92 0
72 73 74 0
-72 -73 -74 0
53 73 93 0
-53 -73 -93 0
73 74 75 0
-73 -74 -75 0
54 74 94 0
-54 -74 -94 0
74 75 76 0
-74 -75 -76 0
55 75 95 0
-55 -75 -95 0
76 0
75 76 77 0
-75 -76 -77 0
56 76 96 0
-56 -76 -96 0
76 77 78 0
-76 -77 -78 0
57 77 97 0
-57 -77 -97 0
77 78 79 0
-77 -78 -79 0
58 78 98 0
-58 -78 -98 0
79 0
78 79 80 0
-78 -79 -80 0
59 79 99 0
-59 -79 -99 0
60 80 100 0
-60 -80 -100 0
61 81 101 0
-61 -81 -101 0
81 82 83 0
-81 -82 -83 0
62 82 102 0
-62 -82 -102 0
82 83 84 0
-82 -83 -84 0
63 83 103 0
-63 -83 -103 0
83 84 85 0
-83 -84 -85 0
64 84 104 0
-64 -84 -104 0
84 85 86 0
-84 -85 -86 0
65 85 105 0
-65 -85 -105 0
85 86 87 0
-85 -86 -87 0
66 86 106 0
-66 -86 -106 0
86 87 88 0
-86 -87 -88 0
67 87 107 0
-67 -87 -107 0
87 88 89 0
-87 -88 -89 0
68 88 108 0
-68 -88 -108 0
-89 0
88 89 90 0
-88 -89 -90 0
69 89 109 0
-69 -89 -109 0
89 90 91 0
-89 -90 -91 0
70 90 110 0
-70 -90 -110 0
90 91 92 0
-90 -91 -92 0
71 91 111 0
-71 -91 -111 0
-92 0
91 92 93 0
-91 -92 -93 0
72 92 112 0
-72 -92 -112 0
92 93 94 0
-92 -93 -94 0
73 93 113 0
-73 -93 -113 0
93 94 95 0
-93 -94 -95 0
74 94 114 0
-74 -94 -114 0
94 95 96 0
-94 -95 -96 0
75 95 115 0
-75 -95 -115 0
-96 0
95 96 97 0
-95 -96 -97 0
76 96 116 0
-76 -96 -116 0
-97 0
96 97 98 0
-96 -97 -98 0
77 97 117 0
-77 -97 -117 0
97 98 99 0
-97 -98 -99 0
78 98 118 0
-78 -98 -118 0
98 99 100 0
-98 -99 -100 0
79 99 119 0
-79 -99 -119 0
80 100 120 0
-80 -100 -120 0
81 101 121 0
-81 -101 -121 0
101 102 103 0
-101 -102 -103 0
82 102 122 0
-82 -102 -122 0
103 0
102 103 104 0
-102 -103 -104 0
83 103 123 0
-83 -103 -123 0
104 0
103 104 105 0
-103 -104 -105 0
84 104 124 0
-84 -104 -124 0
104 105 106 0
-104 -105 -106 0
85 105 125 0
-85 -105 -125 0
105 106 107 0
-105 -106 -107 0
86 106 126 0
-86 -106 -126 0
106 107 108 0
-106 -107 -108 0
87 107 127 0
-87 -107 -127 0
107 108 109 0
-107 -108 -109 0
88 108 128 0
-88 -108 -128 0
108 109 110 0
-108 -109 -110 0
89 109 129 0
-89 -109 -129 0
109 110 111 0
-109 -110 -111 0
90 110 130 0
-90 -110 -130 0
111 0
110 111 112 0
-110 -111 -112 0
91 111 131 0
-91 -111 -131 0
-112 0
111 112 113 0
-111 -112 -113 0
92 112 132 0
-92 -112 -132 0
112 113 114 0
-112 -113 -114 0
93 113 133 0
-93 -113 -133 0
113 114 115 0
-113 -114 -115 0
94 114 134 0
-94 -114 -134 0
114 115 116 0
-114 -115 -116 0
95 115 135 0
-95 -115 -135 0
115 116 117 0
-115 -116 -117 0
96 116 136 0
-96 -116 -136 0
116 117 118 0
-116 -117 -118 0
97 117 137 0
-97 -117 -137 0
117 118 119 0
-117 -118 -119 0
98 118 138 0
-98 -118 -138 0
119 0
118 119 120 0
-118 -119 -120 0
99 119 139 0
-99 -119 -139 0
100 120 140 0
-100 -120 -140 0
-121 0
101 121 141 0
-101 -121 -141 0
121 122 123 0
-121 -122 -123 0
102 122 142 0
-102 -122 -142 0
-123 0
122 123 124 0
-122 -123 -124 0
103 123 143 0
-103 -123 -143 0
123 124 125 0
-123 -124 -125 0
104 124 144 0
-104 -124 -144 0
124 125 126 0
-124 -125 -126 0
105 125 145 0
-105 -125 -145 0
-126 0
125 126 127 0
-125 -126 -127 0
106 126 146 0
-106 -126 -146 0
-127 0
126 127 128 0
-126 -127 -128 0
107 127 147 0
-107 -127 -147 0
127 128 129 0
-127 -128 -129 0
108 128 148 0
-108 -128 -148 0
128 129 130 0
-128 -129 -130 0
109 129 149 0
-109 -129 -149 0
130 0
129 130 131 0
-129 -130 -131 0
110 130 150 0
-110 -130 -150 0
130 131 132 0
-130 -131 -132 0
111 131 151 0
-111 -131 -151 0
131 132 133 0
-131 -132 -133 0
112 132 152 0
-112 -132 -152 0
132 133 134 0
-132 -133 -134 0
113 133 153 0
-113 -133 -153 0
133 134 135 0
-133 -134 -135 0
114 134 154 0
-114 -134 -154 0
135 0
134 135 136 0
-134 -135 -136 0
115 135 155 0
-115 -135 -155 0
135 136 137 0
-135 -136 -137 0
116 136 156 0
-116 -136 -156 0
136 137 138 0
-136 -137 -138 0
117 137 157 0
-117 -137 -157 0
-138 0
137 138 139 0
-137 -138 -139 0
118 138 158 0
-118 -138 -158 0
138 139 140 0
-138 -139 -140 0
119 139 159 0
-119 -139 -159 0
120 140 160 0
-120 -140 -160 0
121 141 161 0
-121 -141 -161 0
141 142 143 0
-141 -142 -143 0
122 142 162 0
-122 -142 -162 0
142 143 144 0
-142 -143 -144 0
123 143 163 0
-123 -143 -163 0
143 144 145 0
-143 -144 -145 0
124 144 164 0
-124 -144 -164 0
144 145 146 0
-144 -145 -146 0
125 145 165 0
-125 -145 -165 0
145 146 147 0
-145 -146 -147 0
126 146 166 0
-126 -146 -166 0
146 147 148 0
-146 -147 -148 0
127 147 167 0
-127 -147 -167 0
147 148 149 0
-147 -148 -149 0
128 148 168 0
-128 -148 -168 0
148 149 150 0
-148 -149 -150 0
129 149 169 0
-129 -149 -169 0
149 150 151 0
-149 -150 -151 0
130 150 170 0
-130 -150 -170 0
150 151 152 0
-150 -151 -152 0
131 151 171 0
-131 -151 -171 0
152 0
151 152 153 0
-151 -152 -153 0
132 152 172 0
-132 -152 -172 0
152 153 154 0
-152 -153 -154 0
133 153 173 0
-133 -153 -173 0
153 154 155 0
-153 -154 -155 0
134 154 174 0
-134 -154 -174 0
-155 0
154 155 156 0
-154 -155 -156 0
135 155 175 0
-135 -155 -175 0
156 0
155 156 157 0
-155 -156 -157 0
136 156 176 0
-136 -156 -176 0
156 157 158 0
-156 -157 -158 0
137 157 177 0
-137 -157 -177 0
-158 0
157 158 159 0
-157 -158 -159 0
138 158 178 0
-138 -158 -178 0
158 159 160 0
-158 -159 -160 0
139 159 179 0
-139 -159 -179 0
-160 0
140 160 180 0
-140 -160 -180 0
141 161 181 0
-141 -161 -181 0
161 162 163 0
-161 -162 -163 0
142 162 182 0
-142 -162 -182 0
162 163 164 0
-162 -163 -164 0
143 163 183 0
-143 -163 -183 0
-164 0
163 164 165 0
-163 -164 -165 0
144 164 184 0
-144 -164 -184 0
164 165 166 0
-164 -165 -166 0
145 165 185 0
-145 -165 -185 0
-166 0
165 166 167 0
-165 -166 -167 0
146 166 186 0
-146 -166 -186 0
166 167 168 0
-166 -167 -168 0
147 167 187 0
-147 -167 -187 0
167 168 169 0
-167 -168 -169 0
148 168 188 0
-148 -168 -188 0
168 169 170 0
-168 -169 -170 0
149 169 189 0
-149 -169 -189 0
169 170 171 0
-169 -170 -171 0
150 170 190 0
-150 -170 -190 0
170 171 172 0
-170 -171 -172 0
151 171 191 0
-151 -171 -191 0
171 172 173 0
-171 -172 -173 0
152 172 192 0
-152 -172 -192 0
172 173 174 0
-172 -173 -174 0
153 173 193 0
-153 -173 -193 0
173 174 175 0
-173 -174 -175 0
154 174 194 0
-154 -174 -194 0
174 175 176 0
-174 -175 -176 0
155 175 195 0
-155 -175 -195 0
175 176 177 0
-175 -176 -177 0
156 176 196 0
-156 -176 -196 0
176 177 178 0
-176 -177 -178 0
157 177 197 0
-157 -177 -197 0
177 178 179 0
-177 -178 -179 0
158 178 198 0
-158 -178 -198 0
178 179 180 0
-178 -179 -180 0
159 179 199 0
-159 -179 -199 0
160 180 200 0
-160 -180 -200 0
161 181 201 0
-161 -181 -201 0
182 0
181 182 183 0
-181 -182 -183 0
162 182 202 0
-162 -182 -202 0
182 183 184 0
-182 -183 -184 0
163 183 203 0
-163 -183 -203 0
183 184 185 0
-183 -184 -185 0
164 184 204 0
-164 -184 -204 0
184 185 186 0
-184 -185 -186 0
165 185 205 0
-165 -185 -205 0
185 186 187 0
-185 -186 -187 0
166 186 206 0
-166 -186 -206 0
187 0
186 187 188 0
-186 -187 -188 0
167 187 207 0
-167 -187 -207 0
187 188 189 0
-187 -188 -189 0
168 188 208 0
-168 -188 -208 0
188 189 190 0
-188 -189 -190 0
169 189 209 0
-169 -189 -209 0
189 190 191 0
-189 -190 -191 0
170 190 210 0
-170 -190 -210 0
191 0
190 191 192 0
-190 -191 -192 0
171 191 211 0
-171 -191 -211 0
-192 0
191 192 193 0
-191 -192 -193 0
172 192 212 0
-172 -192 -212 0
192 193 194 0
-192 -193 -194 0
173 193 213 0
-173 -193 -213 0
193 194 195 0
-193 -194 -195 0
174 194 214 0
-174 -194 -214 0
194 195 196 0
-194 -195 -196 0
175 195 215 0
-175 -195 -215 0
-196 0
195 196 197 0
-195 -196 -197 0
176 196 216 0
-176 -196 -216 0
196 197 198 0
-196 -197 -198 0
177 197 217 0
-177 -197 -217 0
-198 0
197 198 199 0
-197 -198 -199 0
178 198 218 0
-178 -198 -218 0
198 199 200 0
-198 -199 -200 0
179 199 219 0
-179 -199 -219 0
180 200 220 0
-180 -200 -220 0
181 201 221 0
-181 -201 -221 0
201 202 203 0
-201 -202 -203 0
182 202 222 0
-182 -202 -222 0
-203 0
202 203 204 0
-202 -203 -204 0
183 203 223 0
-183 -203 -223 0
203 204 205 0
-203 -204 -205 0
184 204 224 0
-184 -204 -224 0
-205 0
204 205 206 0
-204 -205 -206 0
185 205 225 0
-185 -205 -225 0
205 206 207 0
-205 -206 -207 0
186 206 226 0
-186 -206 -226 0
206 207 208 0
-206 -207 -208 0
187 207 227 0
-187 -207 -227 0
207 208 209 0
-207 -208 -209 0
188 208 228 0
-188 -208 -228 0
208 209 210 0
-208 -209 -210 0
189 209 229 0
-189 -209 -229 0
209 210 211 0
-209 -210 -211 0
190 210 230 0
-190 -210 -230 0
211 0
210 211 212 0
-210 -211 -212 0
191 211 231 0
-191 -211 -231 0
211 212 213 0
-211 -212 -213 0
192 212 232 0
-192 -212 -232 0
212 213 214 0
-212 -213 -214 0
193 213 233 0
-193 -213 -233 0
213 214 215 0
-213 -214 -215 0
194 214 234 0
-194 -214 -234 0
215 0
214 215 216 0
-214 -215 -216 0
195 215 235 0
-195 -215 -235 0
215 216 217 0
-215 -216 -217 0
196 216 236 0
-196 -216 -236 0
-217 0
216 217 218 0
-216 -217 -218 0
197 217 237 0
-197 -217 -237 0
217 218 219 0
-217 -218 -219 0
198 218 238 0
-198 -218 -238 0
218 219 220 0
-218 -219 -220 0
199 219 239 0
-199 -219 -239 0
200 220 240 0
-200 -220 -240 0
201 221 241 0
-201 -221 -241 0
221 222 223 0
-221 -222 -223 0
202 222 242 0
-202 -222 -242 0
222 223 224 0
-222 -223 -224 0
203 223 243 0
-203 -223 -243 0
223 224 225 0
-223 -224 -225 0
204 224 244 0
-204 -224 -244 0
224 225 226 0
-224 -225 -226 0
205 225 245 0
-205 -225 -245 0
226 0
225 226 227 0
-225 -226 -227 0
206 226 246 0
-206 -226 -246 0
226 227 228 0
-226 -227 -228 0
207 227 247 0
-207 -227 -247 0
227 228 229 0
-227 -228 -229 0
208 228 248 0
-208 -228 -248 0
228 229 230 0
-228 -229 -230 0
209 229 249 0
-209 -229 -249 0
229 230 231 0
-229 -230 -231 0
210 230 250 0
-210 -230 -250 0
230 231 232 0
-230 -231 -232 0
211 231 251 0
-211 -231 -251 0
231 232 233 0
-231 -232 -233 0
212 232 252 0
-212 -232 -252 0
232 233 234 0
-232 -233 -234 0
213 233 253 0
-213 -233 -253 0
233 234 235 0
-233 -234 -235 0
214 234 254 0
-214 -234 -254 0
234 235 236 0
-234 -235 -236 0
215 235 255 0
-215 -235 -255 0
235 236 237 0
-235 -236 -237 0
216 236 256 0
-216 -236 -256 0
236 237 238 0
-236 -237 -238 0
217 237 257 0
-217 -237 -257 0
238 0
237 238 239 0
-237 -238 -239 0
218 238 258 0
-218 -238 -258 0
238 239 240 0
-238 -239 -240 0
219 239 259 0
-219 -239 -259 0
220 240 260 0
-220 -240 -260 0
221 241 261 0
-221 -241 -261 0
241 242 243 0
-241 -242 -243 0
222 242 262 0
-222 -242 -262 0
242 243 244 0
-242 -243 -244 0
223 243 263 0
-223 -243 -263 0
243 244 245 0
-243 -244 -245 0
224 244 264 0
-224 -244 -264 0
244 245 246 0
-244 -245 -246 0
225 245 265 0
-225 -245 -265 0
246 0
245 246 247 0
-245 -246 -247 0
226 246 266 0
-226 -246 -266 0
246 247 248 0
-246 -247 -248 0
227 247 267 0
-227 -247 -267 0
247 248 249 0
-247 -248 -249 0
228 248 268 0
-228 -248 -268 0
-249 0
248 249 250 0
-248 -249 -250 0
229 249 269 0
-229 -249 -269 0
249 250 251 0
-249 -250 -251 0
230 250 270 0
-230 -250 -270 0
251 0
250 251 252 0
-250 -251 -252 0
231 251 271 0
-231 -251 -271 0
252 0
251 252 253 0
-251 -252 -253 0
232 252 272 0
-232 -252 -272 0
252 253 254 0
-252 -253 -254 0
233 253 273 0
-233 -253 -273 0
253 254 255 0
-253 -254 -255 0
234 254 274 0
-234 -254 -274 0
254 255 256 0
-254 -255 -256 0
235 255 275 0
-235 -255 -275 0
255 256 257 0
-255 -256 -257 0
236 256 276 0
-236 -256 -276 0
256 257 258 0
-256 -257 -258 0
237 257 277 0
-237 -257 -277 0
257 258 259 0
-257 -258 -259 0
238 258 278 0
-238 -258 -278 0
258 259 260 0
-258 -259 -260 0
239 259 279 0
-239 -259 -279 0
-260 0
240 260 280 0
-240 -260 -280 0
241 261 281 0
-241 -261 -281 0
-262 0
261 262 263 0
-261 -262 -263 0
242 262 282 0
-242 -262 -282 0
262 263 264 0
-262 -263 -264 0
243 263 283 0
-243 -263 -283 0
263 264 265 0
-263 -264 -265 0
244 264 284 0
-244 -264 -284 0
264 265 266 0
-264 -265 -266 0
245 265 285 0
-245 -265 -285 0
265 266 267 0
-265 -266 -267 0
246 266 286 0
-246 -266 -286 0
266 267 268 0
-266 -267 -268 0
247 267 287 0
-247 -267 -287 0
267 268 269 0
-267 -268 -269 0
248 268 288 0
-248 -268 -288 0
-269 0
268 269 270 0
-268 -269 -270 0
249 269 289 0
-249 -269 -289 0
269 270 271 0
-269 -270 -271 0
250 270 290 0
-250 -270 -290 0
270 271 272 0
-270 -271 -272 0
251 271 291 0
-251 -271 -291 0
271 272 273 0
-271 -272 -273 0
252 272 292 0
-252 -272 -292 0
272 273 274 0
-272 -273 -274 0
253 273 293 0
-253 -273 -293 0
-274 0
273 274 275 0
-273 -274 -275 0
254 274 294 0
-254 -274 -294 0
274 275 276 0
-274 -275 -276 0
255 275 295 0
-255 -275 -295 0
275 276 277 0
-275 -276 -277 0
256 276 296 0
-256 -276 -296 0
277 0
276 277 278 0
-276 -277 -278 0
257 277 297 0
-257 -277 -297 0
-278 0
277 278 279 0
-277 -278 -279 0
258 278 298 0
-258 -278 -298 0
278 279 280 0
-278 -279 -280 0
259 279 299 0
-259 -279 -299 0
260 280 300 0
-260 -280 -300 0
261 281 301 0
-261 -281 -301 0
281 282 283 0
-281 -282 -283 0
262 282 302 0
-262 -282 -302 0
283 0
282 283 284 0
-282 -283 -284 0
263 283 303 0
-263 -283 -303 0
283 284 285 0
-283 -284 -285 0
264 284 304 0
-264 -284 -304 0
285 0
284 285 286 0
-284 -285 -286 0
265 285 305 0
-265 -285 -305 0
285 286 287 0
-285 -286 -287 0
266 286 306 0
-266 -286 -306 0
286 287 288 0
-286 -287 -288 0
267 287 307 0
-267 -287 -307 0
287 288 289 0
-287 -288 -289 0
268 288 308 0
-268 -288 -308 0
288 289 290 0
-288 -289 -290 0
269 289 309 0
-269 -289 -309 0
290 0
289 290 291 0
-289 -290 -291 0
270 290 310 0
-270 -290 -310 0
290 291 292 0
-290 -291 -292 0
271 291 311 0
-271 -291 -311 0
292 0
291 292 293 0
-291 -292 -293 0
272 292 312 0
-272 -292 -312 0
292 293 294 0
-292 -293 -294 0
273 293 313 0
-273 -293 -313 0
293 294 295 0
-293 -294 -295 0
274 294 314 0
-274 -294 -314 0
294 295 296 0
-294 -295 -296 0
275 295 315 0
-275 -295 -315 0
295 296 297 0
-295 -296 -297 0
276 296 316 0
-276 -296 -316 0
296 297 298 0
-296 -297 -298 0
277 297 317 0
-277 -297 -317 0
297 298 299 0
-297 -298 -299 0
278 298 318 0
-278 -298 -318 0
298 299 300 0
-298 -299 -300 0
279 299 319 0
-279 -299 -319 0
280 300 320 0
-280 -300 -320 0
301 0
281 301 321 0
-281 -301 -321 0
301 302 303 0
-301 -302 -303 0
282 302 322 0
-282 -302 -322 0
302 303 304 0
-302 -303 -304 0
283 303 323 0
-283 -303 -323 0
303 304 305 0
-303 -304 -305 0
284 304 324 0
-284 -304 -324 0
304 305 306 0
-304 -305 -306 0
285 305 325 0
-285 -305 -325 0
305 306 307 0
-305 -306 -307 0
286 306 326 0
-286 -306 -326 0
307 0
306 307 308 0
-306 -307 -308 0
287 307 327 0
-287 -307 -327 0
307 308 309 0
-307 -308 -309 0
288 308 328 0
-288 -308 -328 0
308 309 310 0
-308 -309 -310 0
289 309 329 0
-289 -309 -329 0
310 0
309 310 311 0
-309 -310 -311 0
290 310 330 0
-290 -310 -330 0
310 311 312 0
-310 -311 -312 0
291 311 331 0
-291 -311 -331 0
311 312 313 0
-311 -312 -313 0
292 312 332 0
-292 -312 -332 0
312 313 314 0
-312 -313 -314 0
293 313 333 0
-293 -313 -333 0
313 314 315 0
-313 -314 -315 0
294 314 334 0
-294 -314 -334 0
314 315 316 0
-314 -315 -316 0
295 315 335 0
-295 -315 -335 0
315 316 317 0
-315 -316 -317 0
296 316 336 0
-296 -316 -336 0
-317 0
316 317 318 0
-316 -317 -318 0
297 317 337 0
-297 -317 -337 0
317 318 319 0
-317 -318 -319 0
298 318 338 0
-298 -318 -338 0
319 0
318 319 320 0
-318 -319 -320 0
299 319 339 0
-299 -319 -339 0
300 320 340 0
-300 -320 -340 0
301 321 341 0
-301 -321 -341 0
321 322 323 0
-321 -322 -323 0
302 322 342 0
-302 -322 -342 0
-323 0
322 323 324 0
-322 -323 -324 0
303 323 343 0
-303 -323 -343 0
323 324 325 0
-323 -324 -325 0
304 324 344 0
-304 -324 -344 0
324 325 326 0
-324 -325 -326 0
305 325 345 0
-305 -325 -345 0
-326 0
325 326 327 0
-325 -326 -327 0
306 326 346 0
-306 -326 -346 0
326 327 328 0
-326 -327 -328 0
307 327 347 0
-307 -327 -347 0
327 328 329 0
-327 -328 -329 0
308 328 348 0
-308 -328 -348 0
-329 0
328 329 330 0
-328 -329 -330 0
309 329 349 0
-309 -329 -349 0
329 330 331 0
-329 -330 -331 0
310 330 350 0
-310 -330 -350 0
330 331 332 0
-330 -331 -332 0
311 331 351 0
-311 -331 -351 0
331 332 333 0
-331 -332 -333 0
312 332 352 0
-312 -332 -352 0
333 0
332 333 334 0
-332 -333 -334 0
313 333 353 0
-313 -333 -353 0
333 334 335 0
-333 -334 -335 0
314 334 354 0
-314 -334 -354 0
334 335 336 0
-334 -335 -336 0
315 335 355 0
-315 -335 -355 0
335 336 337 0
-335 -336 -337 0
316 336 356 0
-316 -336 -356 0
-337 0
336 337 338 0
-336 -337 -338 0
317 337 357 0
-317 -337 -357 0
-338 0
337 338 339 0
-337 -338 -339 0
318 338 358 0
-318 -338 -358 0
338 339 340 0
-338 -339 -340 0
319 339 359 0
-319 -339 -359 0
320 340 360 0
-320 -340 -360 0
321 341 361 0
-321 -341 -361 0
-342 0
341 342 343 0
-341 -342 -343 0
322 342 362 0
-322 -342 -362 0
342 343 344 0
-342 -343 -344 0
323 343 363 0
-323 -343 -363 0
343 344 345 0
-343 -344 -345 0
324 344 364 0
-324 -344 -364 0
344 345 346 0
-344 -345 -346 0
325 345 365 0
-325 -345 -365 0
345 346 347 0
-345 -346 -347 0
326 346 366 0
-326 -346 -366 0
346 347 348 0
-346 -347 -348 0
327 347 367 0
-327 -347 -367 0
347 348 349 0
-347 -348 -349 0
328 348 368 0
-328 -348 -368 0
348 349 350 0
-348 -349 -350 0
329 349 369 0
-329 -349 -369 0
349 350 351 0
-349 -350 -351 0
330 350 370 0
-330 -350 -370 0
350 351 352 0
-350 -351 -352 0
331 351 371 0
-331 -351 -371 0
351 352 353 0
-351 -352 -353 0
332 352 372 0
-332 -352 -372 0
352 353 354 0
-352 -353 -354 0
333 353 373 0
-333 -353 -373 0
354 0
353 354 355 0
-353 -354 -355 0
334 354 374 0
-334 -354 -374 0
355 0
354 355 356 0
-354 -355 -356 0
335 355 375 0
-335 -355 -375 0
355 356 357 0
-355 -356 -357 0
336 356 376 0
-336 -356 -376 0
356 357 358 0
-356 -357 -358 0
337 357 377 0
-337 -357 -377 0
358 0
357 358 359 0
-357 -358 -359 0
338 358 378 0
-338 -358 -378 0
358 359 360 0
-358 -359 -360 0
339 359 379 0
-339 -359 -379 0
340 360 380 0
-340 -360 -380 0
341 361 381 0
-341 -361 -381 0
361 362 363 0
-361 -362 -363 0
342 362 382 0
-342 -362 -382 0
363 0
362 363 364 0
-362 -363 -364 0
343 363 383 0
-343 -363 -383 0
363 364 365 0
-363 -364 -365 0
344 364 384 0
-344 -364 -384 0
364 365 366 0
-364 -365 -366 0
345 365 385 0
-345 -365 -385 0
-366 0
365 366 367 0
-365 -366 -367 0
346 366 386 0
-346 -366 -386 0
366 367 368 0
-366 -367 -368 0
347 367 387 0
-347 -367 -387 0
368 0
367 368 369 0
-367 -368 -369 0
348 368 388 0
-348 -368 -388 0
368 369 370 0
-368 -369 -370 0
349 369 389 0
-349 -369 -389 0
369 370 371 0
-369 -370 -371 0
350 370 390 0
-350 -370 -390 0
-371 0
370 371 372 0
-370 -371 -372 0
351 371 391 0
-351 -371 -391 0
-372 0
371 372 373 0
-371 -372 -373 0
352 372 392 0
-352 -372 -392 0
372 373 374 0
-372 -373 -374 0
353 373 393 0
-353 -373 -393 0
373 374 375 0
-373 -374 -375 0
354 374 394 0
-354 -374 -394 0
374 375 376 0
-374 -375 -376 0
355 375 395 0
-355 -375 -395 0
375 376 377 0
-375 -376 -377 0
356 376 396 0
-356 -376 -396 0
376 377 378 0
-376 -377 -378 0
357 377 397 0
-357 -377 -397 0
377 378 379 0
-377 -378 -379 0
358 378 398 0
-358 -378 -398 0
378 379 380 0
-378 -379 -380 0
359 379 399 0
-359 -379 -399 0
-380 0
360 380 400 0
-360 -380 -400 0
-382 0
381 382 383 0
-381 -382 -383 0
382 383 384 0
-382 -383 -384 0
-384 0
383 384 385 0
-383 -384 -385 0
384 385 386 0
-384 -385 -386 0
385 386 387 0
-385 -386 -387 0
387 0
386 387 388 0
-386 -387 -388 0
387 388 389 0
-387 -388 -389 0
388 389 390 0
-388 -389 -390 0
-390 0
389 390 391 0
-389 -390 -391 0
390 391 392 0
-390 -391 -392 0
391 392 393 0
-391 -392 -393 0
393 0
392 393 394 0
-392 -393 -394 0
-394 0
393 394 395 0
-393 -394 -395 0
394 395 396 0
-394 -395 -396 0
395 396 397 0
-395 -396 -397 0
397 0
396 397 398 0
-396 -397 -398 0
398 0
397 398 399 0
-397 -398 -399 0
398 399 400 0
-398 -399 -400 0
1 2 5 6 9 10 12 14 15 17 18 20 0
1 21 61 81 121 141 181 201 241 281 321 361 381 0
1 2 5 6 9 10 12 14 15 17 19 20 0
1 21 61 81 121 141 181 201 241 281 321 361 0
1 2 5 6 9 10 12 14 15 17 20 0
1 21 61 81 121 141 181 241 281 321 361 381 0
1 2 5 6 9 10 12 14 15 18 20 0
1 21 61 81 121 141 181 241 281 321 361 0
1 2 5 6 9 10 12 14 17 19 20 0
1 21 61 81 121 141 181 221 281 321 361 381 0
21 22 24 25 27 29 30 33 35 36 38 39 0
1 21 61 81 121 141 181 221 281 321 361 0
21 22 24 25 27 29 30 33 35 36 39 0
1 21 61 81 121 141 201 241 281 321 361 381 0
21 22 24 25 27 29 30 33 35 37 39 0
1 21 61 81 121 141 201 241 281 321 361 0
21 22 24 25 27 29 30 33 35 38 39 0
1 21 61 81 121 141 201 221 281 321 361 381 0
61 62 64 66 68 69 71 73 75 78 80 0
1 21 61 81 121 141 201 221 281 321 361 0
-61 -63 -65 -67 -68 -71 -72 -74 -76 -77 -79 -80 0
1 21 81 121 141 181 201 241 281 321 361 381 0
-61 -63 -65 -67 -68 -71 -72 -74 -76 -77 -79 0
1 21 81 121 141 181 201 241 281 321 361 0
-61 -63 -65 -67 -68 -70 -72 -74 -76 -77 -79 -80 0
1 21 81 121 141 181 241 281 321 361 381 0
-61 -63 -65 -67 -68 -70 -72 -74 -76 -77 -79 0
2 22 62 102 142 162 222 262 302 342 382 0
-61 -63 -65 -67 -68 -70 -72 -73 -76 -77 -79 -80 0
1 21 81 121 141 181 221 241 281 321 361 0
-61 -63 -65 -67 -68 -70 -72 -73 -76 -77 -79 0
1 21 81 121 141 181 221 281 321 361 381 0
-61 -63 -65 -67 -70 -72 -74 -76 -77 -79 -80 0
2 22 62 102 142 162 202 242 262 302 342 382 0
81 83 84 87 89 90 92 93 96 97 99 0
2 22 62 102 142 162 202 262 302 342 382 0
81 83 84 87 89 90 92 94 96 97 99 0
2 22 62 102 142 202 242 262 302 342 382 0
81 83 85 87 89 90 92 94 96 97 99 0
-3 -23 -63 -103 -143 -183 -223 -283 -303 -363 -383 0
81 83 85 87 89 90 92 93 96 97 99 0
-3 -23 -63 -103 -143 -183 -243 -283 -303 -363 -383 0
121 123 124 126 127 129 131 134 136 138 139 0
2 22 62 102 162 202 242 262 302 342 382 0
121 123 124 126 127 129 131 133 136 138 139 0
-3 -23 -63 -103 -163 -183 -243 -283 -303 -363 -383 0
162 164 166 167 169 171 172 174 175 177 179 180 0
-3 -23 -63 -103 -143 -163 -223 -283 -303 -363 -383 0
141 142 144 145 148 150 153 155 157 158 160 0
24 64 84 144 164 224 244 284 304 364 384 0
162 164 166 167 169 171 172 174 175 177 179 0
24 64 84 144 164 224 244 284 324 364 384 0
162 164 166 167 169 171 172 174 175 177 180 0
5 45 105 145 185 205 245 265 305 345 385 0
181 183 185 188 190 192 193 195 196 198 199 0
6 46 66 106 126 166 206 266 306 326 366 386 0
-221 -223 -225 -226 -229 -230 -233 -235 -237 -238 -240 0
6 46 66 106 126 166 206 266 326 366 386 0
-221 -223 -225 -226 -229 -230 -233 -234 -237 -238 -240 0
6 46 66 106 126 166 206 266 306 326 366 0
-201 -202 -204 -207 -208 -211 -212 -215 -216 -219 -220 0
-7 -47 -67 -107 -147 -187 -207 -267 -307 -367 -387 0
241 243 245 247 249 250 253 255 257 258 260 0
2 62 102 142 162 202 222 262 302 342 382 0
321 323 324 326 327 329 330 332 334 335 337 338 0
-7 -47 -67 -107 -147 -187 -207 -267 -307 -347 -387 0
321 323 324 326 329 330 332 334 335 337 338 0
-7 -47 -67 -107 -147 -187 -207 -267 -307 -327 -387 0
1 2 5 7 9 10 12 14 15 17 18 20 0
46 66 106 126 166 206 266 306 326 366 386 0
1 2 5 7 9 10 12 14 15 17 19 20 0
9 29 89 129 169 209 249 269 309 329 369 0
1 2 5 7 9 10 12 14 15 17 20 0
10 30 70 110 150 190 210 250 270 330 350 390 0
1 2 5 7 9 10 12 14 15 18 20 0
10 30 70 110 150 190 210 250 270 330 390 0
1 2 5 7 9 11 12 14 17 19 20 0
9 29 69 89 129 169 209 249 269 329 369 0
1 2 5 7 9 10 12 14 17 19 20 0
1 21 61 121 141 181 201 241 281 321 361 381 0
241 243 245 247 249 250 253 255 257 259 260 0
1 21 61 121 141 181 201 241 281 321 361 0
262 263 265 266 269 270 272 274 275 278 279 0
1 21 61 121 141 181 221 241 281 321 361 381 0
262 263 265 266 269 270 272 274 275 278 280 0
1 21 61 121 141 181 221 241 281 321 361 0
-301 -303 -304 -306 -307 -309 -310 -313 -314 -316 -319 0
1 21 61 121 141 181 221 281 321 361 381 0
-301 -303 -304 -306 -307 -309 -310 -312 -314 -316 -319 0
10 30 90 110 150 190 210 250 270 330 350 390 0
-282 -283 -285 -286 -289 -290 -292 -294 -295 -297 -298 0
10 30 90 110 150 190 210 250 270 330 390 0
1 2 5 7 9 12 14 15 17 18 20 0
30 90 110 150 190 210 250 270 330 350 390 0
1 2 5 7 9 12 14 15 17 19 20 0
-11 -31 -91 -111 -151 -191 -211 -251 -271 -331 -391 0
1 2 5 7 9 11 12 14 15 17 20 0
12 52 92 112 172 192 232 272 312 332 372 392 0
1 2 5 7 9 11 12 14 15 18 20 0
12 52 92 112 172 192 232 272 332 372 392 0
1 2 5 7 9 11 13 14 16 17 19 20 0
32 52 92 112 172 192 232 272 312 332 372 392 0
1 2 5 7 9 11 13 14 16 17 20 0
32 52 92 112 172 192 232 272 332 372 392 0
1 2 5 7 9 11 13 14 16 18 20 0
52 92 112 172 192 232 272 312 332 372 392 0
1 2 5 7 9 11 13 14 16 19 20 0
14 54 94 134 174 214 234 274 314 374 394 0
-301 -303 -304 -306 -307 -309 -310 -312 -313 -316 -318 -319 0
-53 -93 -133 -173 -193 -233 -273 -313 -333 -373 -393 0
-261 -264 -265 -267 -268 -271 -273 -276 -277 -279 -280 0
14 54 94 134 174 214 234 274 294 334 394 0
-261 -264 -265 -267 -268 -271 -273 -275 -277 -279 -280 0
14 54 94 134 174 214 234 274 334 374 394 0
-282 -283 -285 -286 -289 -290 -292 -294 -297 -298 -300 0
-15 -55 -95 -135 -175 -215 -235 -275 -335 -355 -395 0
-241 -242 -244 -246 -248 -251 -252 -254 -256 -258 -259 0
-15 -55 -95 -135 -175 -215 -235 -295 -335 -355 -395 0
-301 -303 -304 -307 -309 -310 -312 -314 -316 -318 -319 0
-13 -53 -93 -133 -173 -193 -233 -273 -333 -373 -393 0
-301 -303 -304 -307 -309 -310 -312 -313 -316 -318 -319 0
30 50 90 110 150 190 210 250 270 330 390 0
-101 -103 -104 -107 -109 -111 -113 -114 -116 -118 -119 0
-13 -53 -93 -113 -173 -193 -233 -273 -313 -333 -373 -393 0
321 323 324 326 327 329 330 332 334 337 338 0
-13 -53 -93 -113 -173 -193 -233 -273 -333 -373 -393 0
-282 -283 -285 -286 -289 -290 -292 -294 -295 -297 -300 0
-47 -67 -107 -147 -187 -207 -267 -307 -327 -367 -387 0
262 263 265 266 269 270 272 274 276 278 280 0
14 54 94 114 174 214 234 274 314 374 394 0
162 164 166 167 169 171 172 174 177 179 180 0
-13 -53 -93 -113 -173 -233 -273 -313 -333 -373 -393 0
361 364 366 367 369 371 372 374 375 377 378 380 0
14 54 94 114 174 214 234 274 294 334 374 394 0
361 364 366 367 369 371 372 375 377 378 380 0
14 54 94 114 174 214 234 274 294 334 394 0
262 263 265 266 269 270 272 274 276 278 279 0
-16 -36 -76 -116 -156 -176 -216 -256 -316 -336 -376 0
-282 -283 -285 -286 -289 -290 -292 -294 -296 -297 -300 0
-16 -36 -76 -116 -156 -176 -216 -256 -296 -336 -376 0
-301 -303 -304 -306 -307 -309 -310 -312 -315 -318 -319 0
14 54 94 114 174 214 254 274 314 374 394 0
321 323 324 326 327 329 330 332 335 337 338 340 0
-19 -59 -79 -119 -159 -179 -219 -279 -319 -339 -379 0
-301 -303 -306 -307 -309 -310 -312 -314 -315 -318 -319 0
-6 -26 -86 -146 -186 -226 -246 -286 -306 -346 -386 0
321 323 326 327 329 330 332 334 335 337 338 0
-25 -65 -85 -125 -165 -225 -265 -285 -325 -365 -385 0
321 323 324 326 327 329 330 332 335 337 338 0
14 54 94 134 174 214 254 274 314 374 394 0
1 2 5 7 9 11 13 14 17 19 20 0
-59 -79 -119 -159 -179 -219 -259 -279 -319 -339 -379 0
321 323 326 327 329 330 332 335 337 338 340 0
20 60 80 120 160 220 260 320 340 380 400 0
361 364 366 369 371 372 374 375 377 378 380 0
162 164 166 167 169 171 172 174 176 177 180 0
1 21 61 121 141 201 221 281 321 361 381 0
-141 -143 -146 -147 -149 -151 -152 -154 -156 -157 -159 0
1 21 61 121 161 221 241 281 321 361 381 0
161 164 166 167 169 171 172 174 176 177 180 0
-15 -55 -95 -135 -175 -215 -255 -275 -335 -355 -395 0
202 203 205 206 209 210 213 214 217 218 220 0
2 62 102 142 162 202 242 262 302 342 382 0
-241 -242 -244 -246 -248 -251 -252 -254 -255 -258 -259 0
-15 -55 -95 -135 -175 -215 -255 -295 -335 -355 -395 0
162 164 166 167 169 171 172 174 176 177 179 0
-15 -55 -95 -135 -175 -215 -275 -295 -335 -355 -395 0
-301 -303 -306 -307 -309 -310 -312 -314 -316 -318 -319 0
-15 -55 -95 -135 -195 -215 -255 -295 -335 -355 -395 0
-381 -383 -385 -387 -389 -391 -393 -395 -397 -398 -400 0
-15 -55 -95 -135 -195 -215 -255 -275 -335 -355 -395 0
-381 -383 -385 -387 -388 -391 -393 -395 -397 -398 -400 0
-8 -28 -88 -128 -168 -208 -248 -268 -328 -368 -388 0
-341 -344 -346 -349 -350 -352 -354 -355 -357 -358 -360 0
-34 -74 -114 -154 -174 -234 -254 -294 -314 -354 -374 0
-181 -182 -184 -186 -187 -189 -191 -193 -195 -197 -199 0
1 21 61 121 141 201 241 281 321 361 381 0
1 21 61 121 141 181 241 281 321 361 381 0
161 162 164 166 167 169 171 172 175 176 179 0
-15 -55 -95 -135 -195 -215 -275 -295 -335 -355 -395 0
-222 -223 -225 -226 -229 -230 -233 -234 -237 -238 -240 0
-34 -74 -114 -154 -194 -234 -254 -294 -314 -354 -374 0
161 162 164 166 167 169 171 172 174 176 179 0
20 60 80 120 160 220 260 300 320 360 380 0
-301 -303 -306 -307 -309 -310 -312 -313 -316 -319 -320 0
-19 -59 -79 -119 -159 -199 -219 -279 -319 -339 -379 0
-63 -65 -67 -69 -70 -72 -74 -76 -77 -79 -80 0
-19 -59 -79 -119 -159 -199 -259 -279 -319 -339 -379 0
161 164 166 167 169 171 172 174 176 179 180 0
-19 -59 -79 -119 -159 -219 -259 -279 -319 -339 -379 0
161 164 166 167 169 171 172 174 177 179 180 0
-13 -53 -93 -133 -173 -233 -273 -313 -333 -373 -393 0
1 2 5 7 9 11 14 15 17 19 20 0
21 23 24 27 29 30 33 35 36 38 39 0
1 21 81 121 141 201 221 281 321 361 381 0
162 164 166 167 169 171 172 174 176 179 180 0
1 21 81 121 141 201 241 281 321 361 381 0
161 162 164 166 167 169 171 172 174 177 179 0
1 21 61 121 161 201 221 281 321 361 381 0
61 62 64 66 68 70 71 73 75 78 80 0
30 70 110 150 190 210 250 270 330 350 390 0
161 164 166 167 169 171 172 174 175 177 179 0
-34 -74 -134 -154 -194 -234 -254 -294 -314 -354 -374 0
21 23 24 27 29 30 32 35 36 38 39 0
30 50 110 150 190 210 250 270 330 350 390 0
-81 -82 -85 -86 -88 -90 -91 -94 -95 -98 -100 0
-31 -51 -91 -111 -151 -191 -211 -251 -271 -331 -391 0
-34 -94 -114 -154 -194 -234 -254 -294 -314 -354 -374 0
-13 -53 -73 -133 -173 -233 -273 -313 -333 -373 -393 0
121 123 126 127 129 131 133 134 136 138 139 0
1 21 61 101 121 161 221 281 321 361 381 0
-13 -53 -113 -133 -173 -233 -273 -313 -333 -373 -393 0
-34 -74 -94 -134 -154 -194 -234 -254 -294 -354 -374 0
-34 -74 -94 -154 -194 -234 -254 -294 -314 -354 -374 0
-34 -94 -134 -154 -194 -234 -254 -294 -314 -354 -374 0
-13 -53 -73 -113 -133 -173 -233 -273 -333 -373 -393 0
-21 -41 -81 -101 -141 -181 -201 -241 -261 -301 -341 0
101 102 105 106 108 110 112 113 115 117 120 0
-34 -54 -114 -154 -194 -234 -254 -294 -314 -354 -374 0
-6 -26 -86 -106 -146 -186 -226 -246 -286 -306 -346 0
-13 -53 -113 -133 -173 -193 -233 -273 -333 -373 -393 0
-13 -53 -73 -133 -173 -193 -233 -273 -333 -373 -393 0
21 23 24 27 29 30 33 34 36 38 39 0
-13 -73 -93 -133 -173 -193 -233 -273 -333 -373 -393 0
-13 -53 -73 -113 -173 -193 -233 -273 -333 -373 -393 0
-34 -74 -94 -134 -154 -194 -234 -254 -314 -354 -374 0
-35 -55 -95 -135 -175 -215 -235 -275 -295 -335 -355 -395 0
-55 -95 -135 -175 -215 -235 -275 -295 -335 -355 -395 0
-13 -53 -113 -173 -193 -233 -273 -313 -333 -373 -393 0
-34 -74 -94 -134 -154 -194 -254 -294 -314 -354 -374 0
-34 -74 -94 -134 -154 -194 -234 -294 -314 -354 -374 0
-21 -22 -25 -26 -28 -31 -32 -34 -35 -37 -40 0
1 41 81 121 141 201 221 281 321 361 381 0
-21 -22 -25 -26 -28 -31 -32 -34 -35 -38 -40 0
1 61 81 121 141 201 221 281 321 361 381 0
41 43 45 46 48 51 52 54 56 57 60 0
1 41 61 121 141 201 221 281 321 361 381 0
201 203 205 206 209 210 213 214 217 218 220 0
-17 -37 -77 -137 -157 -197 -237 -277 -297 -357 -397 0
161 164 166 167 169 171 172 175 176 179 180 0
-34 -74 -94 -154 -174 -234 -254 -294 -314 -354 -374 0
161 164 166 167 169 171 172 175 177 179 180 0
-53 -113 -133 -173 -193 -233 -273 -313 -333 -373 -393 0
161 162 164 166 167 169 171 172 175 177 179 0
-53 -73 -133 -173 -193 -233 -273 -313 -333 -373 -393 0
-21 -22 -25 -26 -28 -31 -32 -34 -37 -38 -40 0
-53 -73 -113 -133 -173 -193 -233 -273 -333 -373 -393 0
162 164 166 167 169 171 172 175 177 179 180 0
-34 -94 -114 -154 -174 -234 -254 -294 -314 -354 -374 0
161 164 166 167 169 171 172 174 175 177 180 0
-13 -73 -93 -133 -173 -233 -273 -313 -333 -373 -393 0
221 222 224 227 228 231 232 235 236 239 240 0
-13 -53 -73 -113 -173 -233 -273 -313 -333 -373 -393 0
-301 -303 -306 -307 -309 -310 -312 -313 -316 -318 -319 0
-53 -93 -113 -173 -193 -233 -273 -313 -333 -373 -393 0
-53 -73 -113 -173 -193 -233 -273 -313 -333 -373 -393 0
-301 -303 -306 -307 -309 -310 -312 -314 -316 -319 -320 0
-16 -56 -76 -116 -156 -176 -216 -256 -276 -316 -336 -376 0
42 43 45 46 48 51 52 54 56 57 60 0
-16 -76 -116 -156 -176 -216 -256 -276 -316 -336 -376 0
-282 -283 -285 -286 -289 -290 -292 -295 -297 -298 -300 0
-16 -56 -76 -116 -156 -216 -256 -276 -316 -336 -376 0
-35 -55 -95 -135 -175 -215 -235 -295 -335 -355 -395 0
-21 -41 -81 -101 -141 -161 -201 -241 -261 -301 -341 0
-22 -42 -82 -122 -142 -182 -202 -242 -282 -322 -362 0
101 102 105 106 108 110 112 114 115 117 120 0
20 60 100 120 160 220 260 300 320 360 380 0
-17 0
18 0
21 0
-36 0
41 0
42 0
-293 0
